35
0 0 0 0 0 0 0 0 0 0 0 0 0 0 0 0 0 0 0 0 0 0 0 0 0 0 0 0 0 0 0 0 0 0 0
0 0 0 0 0 0 0 0 1 0 0 2 0 0 0 0 0 0 0 0 0 0 0 0 0 0 0 0 0 0 3 1 0 0 0
0 0 0 1 0 0 0 0 0 0 0 0 0 0 0 0 0 0 1 0 0 2 0 5 1 0 0 0 0 1 0 0 0 0 2
0 0 2 0 0 0 0 0 0 0 0 0 0 0 0 0 0 0 0 0 0 0 0 1 0 0 0 0 0 0 0 0 0 0 0
0 0 0 0 0 0 0 0 0 0 0 1 0 0 1 0 0 0 0 0 0 0 0 0 2 0 0 0 0 0 0 2 0 0 0
0 0 0 0 0 0 0 0 0 0 0 0 0 0 0 0 0 0 0 0 0 0 0 0 1 0 2 0 0 0 0 0 0 0 0
0 0 0 0 0 0 0 0 0 0 0 0 0 0 0 0 0 0 0 0 0 0 0 0 0 0 0 0 0 0 0 0 0 0 0
0 0 0 0 0 0 0 0 0 0 0 0 0 0 0 1 0 0 0 0 2 0 0 0 0 0 0 0 0 0 0 0 0 0 0
0 2 0 0 0 0 0 0 0 0 2 1 0 0 0 0 1 0 0 0 0 0 0 1 3 0 0 0 0 2 0 0 0 1 0
0 0 0 0 0 0 0 0 0 0 0 0 0 0 0 0 0 0 0 0 0 0 0 0 0 0 0 0 0 0 0 0 0 0 0
0 0 0 0 0 0 0 0 3 0 0 0 0 0 0 0 0 0 0 0 0 0 0 0 0 0 0 0 0 0 0 0 0 1 0
0 3 0 0 1 0 0 0 1 0 0 0 0 0 0 0 0 0 0 0 0 0 0 0 0 0 0 0 0 0 0 3 0 0 0
0 0 0 0 0 0 0 0 0 0 0 0 0 0 0 0 0 0 0 3 0 0 0 0 0 0 0 0 0 0 1 0 0 0 0
0 0 0 0 0 0 0 0 0 0 0 0 0 0 0 0 1 0 0 0 0 0 0 0 3 0 0 0 0 0 0 0 0 0 0
0 0 0 0 1 0 0 0 0 0 0 0 0 0 0 0 0 0 0 2 0 0 0 0 3 0 0 0 1 0 0 0 0 0 0
0 0 0 0 0 0 0 2 0 0 0 0 0 0 0 0 0 0 0 0 1 0 0 0 0 0 0 0 0 0 0 0 0 0 0
0 0 0 0 0 0 0 0 1 0 0 0 0 1 0 0 0 0 0 0 0 0 0 0 2 0 0 0 0 3 0 0 0 0 0
0 0 0 0 0 0 0 0 0 0 0 0 0 0 0 0 0 0 0 0 0 2 0 0 0 0 0 0 0 0 0 0 0 1 0
0 0 1 0 0 0 0 0 0 0 0 0 0 0 0 0 0 0 0 0 0 0 0 0 0 0 0 0 0 0 0 0 0 0 3
0 0 0 0 0 0 0 0 0 0 0 0 2 0 1 0 0 0 0 0 0 0 0 0 0 0 0 0 2 0 1 0 0 0 0
0 0 0 0 0 0 0 3 0 0 0 0 0 0 0 1 0 0 0 0 0 0 0 0 0 0 0 0 0 0 0 0 0 0 0
0 0 1 0 0 0 0 0 0 0 0 0 0 0 0 0 0 3 0 0 0 0 0 0 0 0 0 0 0 2 0 0 0 1 0
0 0 0 0 0 0 0 0 0 0 0 0 0 0 0 0 0 0 0 0 0 0 0 3 0 0 0 0 0 0 0 0 0 1 0
0 0 5 1 0 0 0 0 1 0 0 0 0 0 0 0 0 0 0 0 0 0 2 0 3 0 0 1 3 0 0 0 0 1 0
0 0 1 0 1 1 0 0 2 0 0 0 0 2 2 0 1 0 0 0 0 0 0 3 0 0 3 0 0 0 0 0 0 0 0
0 0 0 0 0 0 0 0 0 0 0 0 0 0 0 0 0 0 0 0 0 0 0 0 0 0 0 0 0 0 0 0 0 0 0
0 0 0 0 0 1 0 0 0 0 0 0 0 0 0 0 0 0 0 0 0 0 0 0 2 0 0 0 0 0 0 0 0 0 0
0 0 0 0 0 0 0 0 0 0 0 0 0 0 0 0 0 0 0 0 0 0 0 1 0 0 0 0 2 0 0 0 0 0 0
0 0 0 0 0 0 0 0 0 0 0 0 0 0 1 0 0 0 0 3 0 0 0 2 0 0 0 1 0 0 0 0 0 0 0
0 0 1 0 0 0 0 0 1 0 0 0 0 0 0 0 2 0 0 0 0 3 0 0 0 0 0 0 0 0 0 0 0 0 0
0 2 0 0 0 0 0 0 0 0 0 0 1 0 0 0 0 0 0 2 0 0 0 0 0 0 0 0 0 0 0 1 0 0 0
0 1 0 0 1 0 0 0 0 0 0 2 0 0 0 0 0 0 0 0 0 0 0 0 0 0 0 0 0 0 2 0 0 0 0
0 0 0 0 0 0 0 0 0 0 0 0 0 0 0 0 0 0 0 0 0 0 0 0 0 0 0 0 0 0 0 0 0 0 0
0 0 0 0 0 0 0 0 2 0 1 0 0 0 0 0 0 2 0 0 0 1 1 2 0 0 0 0 0 0 0 0 0 0 0
0 0 1 0 0 0 0 0 0 0 0 0 0 0 0 0 0 0 2 0 0 0 0 0 0 0 0 0 0 0 0 0 0 0 0

0 4 2 2 1 1 1 5 1 8 1 1 1 5 6 1 3 7 8 5 12 2 3 3 3 4 5 4 2 1 2 5 3 5 3
7 0 5 3 2 2 3 2 9 1 4 1 2 1 2 3 2 3 8 2 4 2 7 2 4 1 6 12 7 2 2 2 2 3 2
3 2 0 2 1 4 1 7 2 4 4 7 4 7 1 5 1 3 1 2 4 2 1 1 11 1 2 1 6 6 2 14 3 1 9
6 2 3 0 5 1 4 1 4 2 4 1 2 7 1 7 3 2 4 5 1 2 1 10 9 11 2 2 1 2 4 1 1 3 2
1 4 1 5 0 10 1 2 1 2 2 2 2 7 3 6 4 7 1 1 1 18 2 1 1 1 3 5 1 1 5 6 6 3 4
1 14 3 1 2 0 1 3 3 2 1 2 9 3 6 13 7 4 5 1 1 4 7 1 2 11 8 1 5 9 2 2 1 2 1
1 12 1 6 1 1 0 6 5 1 2 12 2 4 1 5 1 3 1 4 8 7 1 3 1 1 15 1 1 1 1 1 3 1 2
7 6 5 1 4 2 2 0 5 10 1 1 2 4 1 2 4 3 6 4 7 3 1 2 1 3 8 1 1 4 1 11 3 5 3
1 2 4 4 1 4 3 2 0 5 8 1 8 5 2 4 1 1 3 4 3 8 5 9 6 8 7 3 1 9 2 2 5 1 4
3 1 10 7 3 4 1 3 4 0 1 1 2 3 8 5 3 2 4 3 2 4 5 2 1 2 1 2 3 2 1 9 1 2 7
1 2 5 3 6 1 3 1 3 1 0 1 6 1 3 1 4 2 4 2 3 3 5 1 1 4 1 3 1 2 4 1 2 5 1
1 1 2 1 4 3 6 1 1 1 1 0 3 7 1 8 1 6 8 8 1 3 4 3 2 4 2 6 2 1 9 2 4 2 12
1 4 7 2 2 4 4 3 7 5 4 4 0 6 2 1 2 2 2 3 4 1 3 3 2 5 6 4 3 3 3 1 2 2 3
2 1 5 2 3 2 2 11 11 7 1 5 7 0 12 2 1 4 2 4 2 7 2 2 1 1 3 2 1 5 1 1 6 6 1
6 4 1 1 6 6 1 1 4 3 3 1 5 3 0 4 3 1 12 12 4 1 1 7 5 3 3 1 3 2 1 3 2 1 3
1 4 3 4 2 3 2 2 2 6 1 20 1 8 2 0 1 2 1 1 8 2 3 2 7 4 2 5 4 1 3 1 1 2 1
8 6 1 2 11 2 1 2 1 2 2 1 2 1 2 1 0 4 1 1 6 9 2 1 1 1 6 1 1 1 1 3 5 2 5
3 8 2 6 3 3 2 2 1 4 3 5 2 10 1 5 4 0 2 2 2 8 7 7 2 2 2 3 1 4 2 2 14 1 4
2 3 1 8 1 3 1 9 4 4 9 2 3 4 3 1 1 8 0 1 2 3 1 6 7 2 2 1 2 8 6 5 1 4 3
2 5 5 6 1 1 3 6 3 4 13 5 4 3 3 1 1 2 1 0 3 4 5 3 1 1 5 1 2 4 1 2 1 1 1
2 6 2 1 1 1 6 16 3 3 5 1 3 3 2 2 7 8 2 3 0 6 1 5 2 1 1 1 2 1 2 4 7 1 2
4 13 2 2 3 3 2 6 4 2 2 14 1 6 1 11 2 8 7 3 5 0 4 3 2 8 10 4 3 4 1 1 8 2 2
11 5 1 1 3 2 1 1 2 3 5 2 3 2 1 3 2 5 1 4 1 10 0 1 1 2 1 1 5 2 2 1 1 2 5
7 2 1 5 1 1 3 3 17 2 1 2 19 3 4 2 1 2 3 2 2 5 1 0 1 3 1 1 2 1 1 2 4 2 1
5 7 3 3 1 4 1 1 3 1 1 2 5 1 3 4 1 4 15 1 3 3 1 1 0 5 4 1 1 5 1 1 4 8 5
13 1 1 2 1 2 1 4 2 2 2 2 2 1 2 4 1 3 3 1 1 5 2 2 3 0 5 4 1 3 1 16 9 2 6
2 10 3 15 2 2 3 10 3 1 1 3 3 3 3 2 2 5 5 4 1 3 1 1 9 3 0 4 3 1 3 2 6 1 5
8 2 1 2 4 1 1 1 2 4 2 9 2 3 1 3 1 5 1 1 1 6 1 1 1 2 4 0 6 11 1 10 9 3 3
3 9 6 1 1 5 1 1 1 5 1 2 3 1 4 2 1 1 2 5 2 2 2 2 1 1 7 6 0 2 1 1 6 2 4
1 3 5 5 1 3 1 2 3 3 3 1 6 2 13 1 1 2 2 3 1 11 8 1 2 5 1 4 2 0 3 2 3 3 4
7 5 3 3 9 2 1 1 4 1 3 2 10 1 1 3 1 10 4 1 3 1 4 1 1 1 3 1 1 5 0 10 1 7 1
2 3 3 1 3 4 1 3 2 5 1 4 1 1 6 1 4 6 4 2 3 1 1 2 1 2 6 3 1 2 6 0 1 7 4
2 4 4 1 3 1 2 5 9 1 4 3 4 4 3 1 5 10 1 1 8 10 1 4 2 2 3 5 2 2 1 1 0 1 5
3 7 1 6 4 6 1 2 1 4 6 2 5 2 1 2 7 1 4 1 1 6 2 4 7 5 1 2 5 2 2 3 1 0 2
3 4 6 2 3 1 3 2 9 3 1 5 4 1 2 1 5 4 2 1 6 6 7 1 3 5 6 9 2 3 1 7 6 8 0
